NAME: eil51
COMMENT: Integrantes: Leticia Almeida, Isabelli Pinho e Elislandia Aparecida; Metodo: VND com multi-start filtrado, Vizinho Mais Proximo, 2-Opt e Swap
TYPE: TOUR
DIMENSION: 51
TOTAL_WEIGHT: 428
TOUR_SECTION
8
26
31
28
3
36
35
20
29
2
16
50
21
34
30
10
39
33
45
15
44
42
40
19
41
13
25
14
24
43
7
23
48
6
27
51
46
12
47
18
4
17
37
5
49
9
38
11
32
1
22
EOF
